NAME : TS225A.153834.tour
COMMENT : Cost = 0_153834
COMMENT : Found by LKH [Keld Helsgaun] Sun Sep 17 16:56:17 2017
TYPE : TOUR
DIMENSION : 225
TOUR_SECTION
1
126
127
29
28
27
155
52
53
54
55
56
57
160
159
158
157
156
32
33
134
133
132
131
7
8
9
10
12
13
136
137
138
139
140
39
40
163
164
165
63
62
61
60
59
58
181
182
183
184
185
84
85
86
87
88
211
90
91
92
93
94
195
194
193
192
191
69
170
169
168
167
166
44
143
142
141
18
23
24
25
146
147
148
149
150
50
171
49
48
47
46
45
172
173
174
175
196
198
98
97
96
95
216
217
218
219
220
122
120
117
114
113
215
214
213
212
89
190
189
188
187
186
64
65
66
67
68
70
71
72
73
74
75
197
199
200
100
99
222
221
223
224
225
125
124
123
121
119
118
116
115
112
111
110
109
108
208
207
206
83
82
81
80
79
78
209
210
107
106
105
104
103
102
101
205
204
203
202
201
76
77
180
179
177
178
176
51
154
153
152
151
26
130
129
128
30
31
135
34
35
36
37
38
161
162
41
42
43
145
144
22
21
20
19
17
16
15
14
11
6
5
4
3
2
-1
EOF
